
50
127589

4148 4148
2878 2878
8448 8448
4438 4438
5288 5288
5513 5513
3390 3390
6395 6395
9001 9001
720 720
5610 5610
2641 2641
6557 6557
6234 6234
458 458
1130 1130
5284 5284
8587 8587
7977 7977
8239 8239
1371 1371
3506 3506
5770 5770
3665 3665
2307 2307
9221 9221
6353 6353
3981 3981
4761 4761
6996 6996
7593 7593
7796 7796
3345 3345
9677 9677
7631 7631
2706 2706
1720 1720
4302 4302
2606 2606
8776 8776
94 94
8180 8180
1619 1619
8119 8119
4328 4328
1318 1318
9854 9854
4190 4190
9784 9784
3225 3225
